%%% static parameters %%%
timespan = 1;
Fact = [4];
Distr1 = [15];
Distr2 = [30];
Clients_N = [300];
Demand_W = [15];
Lt0 = [4];
Lt1 = [4];
SS_ = [0.85];
DS_D = [8];
K = [200];
MA = [500];
%%% dynamic parameters %%%
lost_ratio_sales_ret_th = 0.0837515609623336;
lost_ratio_sales_ret_w = 9;
lost_ratio_sales_dis_th = 0.01960048353088706;
lost_ratio_sales_dis_w = 63;
lost_ratio_sales_fac_th = 0.9842553245323089;
lost_ratio_sales_fac_w = 25;
stock_customer_MA_mean_relative_th = 0.1684021873945455;
stock_customer_MA_mean_relative_w = 53;
stock_distributor_MA_mean_relative_th = 0.17691813866414596;
stock_distributor_MA_mean_relative_w = 11;
stock_retailer_MA_mean_relative_th = 0.6774538230510836;
stock_retailer_MA_mean_relative_w = 26;
stock_factory_MA_mean_relative_th = 0.883763677795815;
stock_factory_MA_mean_relative_w = 36;
